NAME: test1836
TYPE: TSP
DIMENSION: 11
EDGE_WEIGHT_TYPE: EUC_2D
NODE_COORD_SECTION
1 88.08211936609007 63.546451265278414
2 81.9850923803783 27.63818121398899
3 95.75055358901497 95.19581072477636
4 28.001554648423564 37.02748922682477
5 72.40985769836013 10.68524588397748
6 96.06064975082587 54.33763013633121
7 36.14507027575129 75.05261342822979
8 2.679848922926076 53.62726564904665
9 18.491427316615695 15.881167882220225
10 83.53791445060756 8.435426434087923
11 93.43205616754874 73.77179013897842
EOF
